75 1 11 49 52 73 61 35 57 24 76 65 48 25 59 67 18 23 20 28 32 5 43 69 0 53 17 51 4 36 33 30 50 64 68 62 40 6 47 27 9 60 39 58 70 8 63 26 2 72 10 19 41 56 16 13 3 38 45 34 7 21 42 74 12 37 71 15 55 46 44 66 54 31 29 14 22 